6 40 4 10
6 2 8 18 7 15 18 10 15 15 1 7 8 17 17 17 19 14 20 8 5 12 1 16 4 11 11 14 20 19 8 9 5 1 19 12 12 16 16 11 
7.07 4.79 1.09 5.2 0.39 2.1 0.87 7.81 0.87 4.66 1.72 4.19 4.59 3.38 2.73 0.56 7.23 1.77 5.03 1.12 4.57 0.9 2.78 6.39 6.22 3.54 0.54 5.47 3.92 0.02 7.46 3.31 5.39 1.89 3.17 3.29 7.41 0.07 6.51 3.08 
2.42 7.28 6.21 5.18 4.09 7.68 1.68 1.68 0.99 0.49 7.54 1.84 6.22 7.3 1.01 4.86 4.07 2.15 1.5 3.01 7.48 7.73 5.49 4.43 4.46 4.07 2.46 1.5 7.38 1.02 0.76 1.97 5.46 6.96 6.21 3.23 7.69 2.88 4.47 4.54 
5.33 6.46 4.26 1.63 3.01 0.03 0.23 3.24 1.7 4.91 7.47 5.51 7.52 6.48 2.22 7.55 3.47 1.63 2.34 6.41 5.88 6.71 3.34 6.17 7.25 5.45 7.51 2.31 5.48 7 3.69 0.93 7.59 4.08 5.86 2.42 3.69 2.9 5.62 0.66 
4.5 3.85 3.99 4 3.9 4.04 3.67 2.58 3.17 2.21 3.37 0.18 3.22 3.79 1.76 7.52 4.34 4.32 5.13 2.38 1.08 3.6 0.28 7.68 2.27 1.62 7.91 6.42 4.15 0.19 0.2 6.41 7.32 0.88 7.19 4.59 5.59 0.93 2.37 5.11 
4 4 4 4 4 4 4 4 4 4 4 4 4 4 4 4 4 4 4 4 4 4 4 4 4 4 4 4 4 4 4 4 4 4 4 4 4 4 4 4 
5.77 5 3.61 0.07 7.4 2.45 6.95 2.28 1.3 2.44 3.28 1.38 5.4 3.55 2.58 4.57 6.15 4.54 5.49 6.9 4.02 0.88 6.72 2.09 5.13 1.43 6.11 2.39 2.26 2.16 7.12 5.63 1.86 7.66 4.2 3.08 5.72 6.05 7.84 0.53 
1 1 1 1 1 1 1 1 1 1 1 1 1 1 1 1 1 1 1 1 1 1 1 1 1 1 1 1 1 1 1 1 1 1 1 1 1 1 1 1 
1 1 1 1 1 1 1 1 1 1 1 1 1 1 1 1 1 1 1 1 1 1 1 1 1 1 1 1 1 1 1 1 1 1 1 1 1 1 1 1 
1 1 1 1 1 1 1 1 1 1 1 1 1 1 1 1 1 1 1 1 1 1 1 1 1 1 1 1 1 1 1 1 1 1 1 1 1 1 1 1 
1 1 1 1 1 1 1 1 1 1 1 1 1 1 1 1 1 1 1 1 1 1 1 1 1 1 1 1 1 1 1 1 1 1 1 1 1 1 1 1 
1 1 1 1 1 1 1 1 1 1 1 1 1 1 1 1 1 1 1 1 1 1 1 1 1 1 1 1 1 1 1 1 1 1 1 1 1 1 1 1 
1 1 1 1 1 1 1 1 1 1 1 1 1 1 1 1 1 1 1 1 1 1 1 1 1 1 1 1 1 1 1 1 1 1 1 1 1 1 1 1 
0.01 0.01 0.01 0.01 0.01 0.01 0.01 0.01 0.01 0.01 0.01 0.01 0.01 0.01 0.01 0.01 0.01 0.01 0.01 0.01 0.01 0.01 0.01 0.01 0.01 0.01 0.01 0.01 0.01 0.01 0.01 0.01 0.01 0.01 0.01 0.01 0.01 0.01 0.01 0.01 
0.02 0.02 0.02 0.02 0.02 0.02 0.02 0.02 0.02 0.02 0.02 0.02 0.02 0.02 0.02 0.02 0.02 0.02 0.02 0.02 0.02 0.02 0.02 0.02 0.02 0.02 0.02 0.02 0.02 0.02 0.02 0.02 0.02 0.02 0.02 0.02 0.02 0.02 0.02 0.02 
0.03 0.03 0.03 0.03 0.03 0.03 0.03 0.03 0.03 0.03 0.03 0.03 0.03 0.03 0.03 0.03 0.03 0.03 0.03 0.03 0.03 0.03 0.03 0.03 0.03 0.03 0.03 0.03 0.03 0.03 0.03 0.03 0.03 0.03 0.03 0.03 0.03 0.03 0.03 0.03 
0.04 0.04 0.04 0.04 0.04 0.04 0.04 0.04 0.04 0.04 0.04 0.04 0.04 0.04 0.04 0.04 0.04 0.04 0.04 0.04 0.04 0.04 0.04 0.04 0.04 0.04 0.04 0.04 0.04 0.04 0.04 0.04 0.04 0.04 0.04 0.04 0.04 0.04 0.04 0.04 
0.05 0.05 0.05 0.05 0.05 0.05 0.05 0.05 0.05 0.05 0.05 0.05 0.05 0.05 0.05 0.05 0.05 0.05 0.05 0.05 0.05 0.05 0.05 0.05 0.05 0.05 0.05 0.05 0.05 0.05 0.05 0.05 0.05 0.05 0.05 0.05 0.05 0.05 0.05 0.05 
1 1 1 1 1 1 1 1 1 1 1 1 1 1 1 1 1 1 1 1 1 1 1 1 1 1 1 1 1 1 1 1 1 1 1 1 1 1 1 1 
